n_object = 20;
max_length = 100;
max_width = 100;
shape = array2d(1..n_object,1..2, [4,2,
                                   2,5,
                                   7,8,
                                   1,3,
                                   7,2,
                                   1,6,
                                   8,2,
                                   1,9,
                                   3,3,
                                   2,2,
                                   5,8,
                                   1,9,
                                   3,5,
                                   5,3,
                                   5,8,
                                   1,2,
                                   3,4,
                                   1,2,
                                   3,4,
                                   2,2]);